c SAT Generator for power-law distributed variable frequencies
c -g u -v 20 -c 91 -k 3 -p 2.750000 -b 3.200000 -f /home/schmidt/Devel/ni-kop-sat/data/ensemble/ruf20-91/ruf20-91-392 -u 1 -U 1 -s 1719039870
p cnf 20 91
9 -12 -14 0
-9 -13 15 0
-5 -8 20 0
-2 12 -14 0
2 4 19 0
-1 -9 14 0
-2 -4 -17 0
4 10 18 0
-12 16 19 0
9 -15 16 0
-9 11 14 0
8 13 -17 0
5 -6 13 0
-12 18 -19 0
2 -11 14 0
-1 6 -8 0
1 -5 -7 0
10 12 -15 0
2 13 -18 0
1 5 -18 0
10 14 -18 0
2 -7 -12 0
2 -5 19 0
-3 12 16 0
2 3 7 0
-4 15 -17 0
4 11 15 0
1 3 10 0
5 9 -10 0
4 -10 -18 0
-14 15 -20 0
8 10 -12 0
11 -13 -16 0
8 11 16 0
1 -3 10 0
7 10 -20 0
-3 12 -18 0
3 -7 -11 0
7 13 14 0
-2 -12 -15 0
6 9 -13 0
7 -8 -12 0
2 -5 -13 0
-1 6 -18 0
-2 -5 19 0
-1 2 20 0
-8 -13 -17 0
-5 -6 14 0
4 8 -10 0
-3 -7 13 0
-9 -12 -16 0
-2 8 16 0
-3 -5 -6 0
-9 -11 -14 0
2 9 -11 0
4 -14 -15 0
3 13 -18 0
-1 -5 -11 0
4 10 -11 0
-2 -16 20 0
16 17 -20 0
14 -15 18 0
-1 7 -15 0
4 6 14 0
3 6 10 0
4 8 10 0
13 17 -20 0
-7 -11 -15 0
-4 5 14 0
-2 3 -11 0
7 8 -18 0
-2 17 -18 0
3 17 19 0
14 -17 19 0
-1 -6 7 0
2 -5 -7 0
-3 5 -17 0
-9 -14 17 0
-5 10 -12 0
-3 -12 -15 0
-6 9 -20 0
2 -6 -11 0
-1 -6 13 0
-3 -8 -13 0
-16 -18 19 0
9 -16 19 0
-4 9 13 0
3 10 -13 0
-4 -9 16 0
-8 -11 12 0
-14 18 -19 0
